100
32
1
13
1
22
18
31
4
9
10
17
25
8
2
24
24
1
2
3
2
4
1
1
1
2
10
1
1
11
1
3
16
1
2
18
3
1
2
3
1
2
1
2
2
1
10
20
2
17
2
6
1
1
1
2
2
1
1
3
20
3
19
3
1
3
2
5
1
1
1
18
2
1
1
3
1
2
1
3
1
2
2
25
1
1
4
2
18
1
1
1
1
2
1
1
1
1
1
1
2
2